3 
4  57 
5  12 27 40 47 55 
6  02 12 19 27 34 42 49 57 
7  04 12 19 27 34 42 49 57 
8  04 12 19 27 34 42 49 57 
9  04 12 19 27 34 46 53 
10  01 08 16 23 31 38 46 53 
11  01 08 16 23 31 38 46 53 
12  01 08 16 23 31 38 46 53 
13  01 08 16 23 31 38 46 53 
14  01 08 16 23 31 38 46 57 
15  05 12 19 27 35 42 50 57 
16  05 12 20 27 35 42 50 57 
17  05 12 20 27 35 42 51 57 
18  06 12 21 27 36 42 50 
19  01 08 16 23 31 38 48 58 
20  06 14 28 42 57 
21  12 27 42 57 
22  08 23 38 53 
23  13 
0 
